NAME : STSP_250-1over3.3.5.1487.tour
COMMENT : Length = 1487
COMMENT : Found by LKH-3 [Keld Helsgaun]
TYPE : TOUR
DIMENSION : 83
TOUR_SECTION
237
87
179
125
102
176
168
38
89
223
69
123
194
123
69
172
3
165
221
37
139
233
243
93
61
204
1
204
61
101
71
143
68
245
184
145
14
90
136
249
127
48
239
197
239
200
227
212
70
23
128
236
128
88
142
244
53
115
120
170
226
170
36
8
46
217
196
103
196
74
192
113
94
81
83
19
83
81
94
55
44
41
77
64
80
18
182
18
65
159
178
159
222
85
130
241
32
161
109
235
246
82
43
121
39
58
92
231
92
58
62
198
206
137
129
210
144
141
207
228
17
122
114
28
72
185
79
164
107
34
60
34
148
247
134
6
42
52
240
218
135
209
224
117
169
96
119
238
119
10
211
11
97
27
219
108
225
99
225
190
51
186
147
21
199
154
199
229
87
-1
EOF
